objective value:                                10115
t_x_2                                               1 	(obj:40)
t_x_8                                               1 	(obj:12)
t_x_10                                              1 	(obj:66)
t_x_11                                              1 	(obj:54)
t_x_14                                              1 	(obj:43)
t_x_18                                              1 	(obj:21)
t_x_19                                              1 	(obj:7)
t_x_21                                              1 	(obj:1)
t_x_23                                              1 	(obj:11)
t_x_26                                              1 	(obj:41)
t_x_37                                              1 	(obj:18)
t_x_41                                              1 	(obj:22)
t_x_47                                              1 	(obj:35)
t_x_57                                              1 	(obj:36)
t_x_63                                              1 	(obj:16)
t_x_64                                              1 	(obj:16)
t_x_68                                              1 	(obj:11)
t_x_70                                              1 	(obj:56)
t_x_71                                              1 	(obj:12)
t_x_72                                              1 	(obj:17)
t_x_73                                              1 	(obj:38)
t_x_74                                              1 	(obj:18)
t_x_75                                              1 	(obj:22)
t_x_77                                              1 	(obj:33)
t_x_78                                              1 	(obj:15)
t_x_80                                              1 	(obj:11)
t_x_81                                              1 	(obj:19)
t_x_82                                              1 	(obj:14)
t_x_84                                              1 	(obj:27)
t_x_85                                              1 	(obj:16)
t_x_88                                              1 	(obj:41)
t_x_90                                              1 	(obj:52)
t_x_97                                              1 	(obj:17)
t_x_100                                             1 	(obj:18)
t_x_102                                             1 	(obj:46)
t_x_103                                             1 	(obj:7)
t_x_104                                             1 	(obj:25)
t_x_105                                             1 	(obj:0)
t_x_113                                             1 	(obj:28)
t_x_115                                             1 	(obj:39)
t_x_118                                             1 	(obj:37)
t_x_119                                             1 	(obj:7)
t_x_126                                             1 	(obj:0)
t_x_128                                             1 	(obj:18)
t_x_129                                             1 	(obj:9)
t_x_135                                             1 	(obj:19)
t_x_140                                             1 	(obj:12)
t_x_141                                             1 	(obj:17)
t_x_143                                             1 	(obj:13)
t_x_144                                             1 	(obj:19)
t_x_151                                             1 	(obj:7)
t_x_152                                             1 	(obj:3)
t_x_155                                             1 	(obj:3)
t_x_156                                             1 	(obj:16)
t_x_158                                             1 	(obj:34)
t_x_161                                             1 	(obj:32)
t_x_164                                             1 	(obj:8)
t_x_166                                             1 	(obj:7)
t_x_167                                             1 	(obj:11)
t_x_168                                             1 	(obj:8)
t_x_171                                             1 	(obj:51)
t_x_174                                             1 	(obj:3)
t_x_175                                             1 	(obj:6)
t_x_179                                             1 	(obj:21)
t_x_188                                             1 	(obj:19)
t_x_193                                             1 	(obj:13)
t_x_196                                             1 	(obj:21)
t_x_202                                             1 	(obj:7)
t_x_205                                             1 	(obj:9)
t_x_209                                             1 	(obj:43)
t_x_212                                             1 	(obj:11)
t_x_213                                             1 	(obj:6)
t_x_217                                             1 	(obj:8)
t_x_222                                             1 	(obj:24)
t_x_224                                             1 	(obj:3)
t_x_231                                             1 	(obj:0)
t_x_233                                             1 	(obj:12)
t_x_237                                             1 	(obj:18)
t_x_239                                             1 	(obj:23)
t_x_242                                             1 	(obj:6)
t_x_246                                             1 	(obj:8)
t_x_248                                             1 	(obj:4)
t_x_251                                             1 	(obj:12)
t_x_252                                             1 	(obj:12)
t_x_259                                             1 	(obj:23)
t_x_260                                             1 	(obj:36)
t_x_261                                             1 	(obj:22)
t_x_267                                             1 	(obj:12)
t_x_268                                             1 	(obj:42)
t_x_272                                             1 	(obj:18)
t_x_288                                             1 	(obj:29)
t_x_289                                             1 	(obj:16)
t_x_292                                             1 	(obj:29)
t_x_310                                             1 	(obj:3)
t_x_314                                             1 	(obj:14)
t_x_320                                             1 	(obj:24)
t_x_322                                             1 	(obj:3)
t_x_325                                             1 	(obj:10)
t_x_326                                             1 	(obj:18)
t_x_327                                             1 	(obj:7)
t_x_329                                             1 	(obj:26)
t_x_338                                             1 	(obj:16)
t_x_346                                             1 	(obj:20)
t_x_349                                             1 	(obj:2)
t_x_350                                             1 	(obj:52)
t_x_356                                             1 	(obj:4)
t_x_358                                             1 	(obj:3)
t_x_360                                             1 	(obj:20)
t_x_365                                             1 	(obj:1)
t_x_366                                             1 	(obj:30)
t_x_367                                             1 	(obj:20)
t_x_369                                             1 	(obj:16)
t_x_373                                             1 	(obj:6)
t_x_376                                             1 	(obj:9)
t_x_382                                             1 	(obj:8)
t_x_385                                             1 	(obj:7)
t_x_386                                             1 	(obj:27)
t_x_389                                             1 	(obj:27)
t_x_390                                             1 	(obj:7)
t_x_392                                             1 	(obj:2)
t_x_394                                             1 	(obj:13)
t_x_396                                             1 	(obj:7)
t_x_397                                             1 	(obj:6)
t_x_399                                             1 	(obj:0)
t_x_404                                             1 	(obj:19)
t_x_405                                             1 	(obj:23)
t_x_410                                             1 	(obj:7)
t_x_411                                             1 	(obj:5)
t_x_412                                             1 	(obj:37)
t_x_420                                             1 	(obj:19)
t_x_421                                             1 	(obj:8)
t_x_424                                             1 	(obj:12)
t_x_426                                             1 	(obj:15)
t_x_427                                             1 	(obj:1)
t_x_434                                             1 	(obj:8)
t_x_435                                             1 	(obj:10)
t_x_437                                             1 	(obj:15)
t_x_439                                             1 	(obj:2)
t_x_443                                             1 	(obj:6)
t_x_444                                             1 	(obj:5)
t_x_446                                             1 	(obj:32)
t_x_450                                             1 	(obj:24)
t_x_453                                             1 	(obj:8)
t_x_454                                             1 	(obj:14)
t_x_457                                             1 	(obj:7)
t_x_458                                             1 	(obj:4)
t_x_459                                             1 	(obj:3)
t_x_461                                             1 	(obj:23)
t_x_464                                             1 	(obj:21)
t_x_483                                             1 	(obj:1)
t_x_487                                             1 	(obj:29)
t_x_494                                             1 	(obj:25)
t_x_502                                             1 	(obj:2)
t_x_503                                             1 	(obj:26)
t_x_504                                             1 	(obj:25)
t_x_517                                             1 	(obj:1)
t_x_519                                             1 	(obj:12)
t_x_521                                             1 	(obj:2)
t_x_529                                             1 	(obj:16)
t_x_536                                             1 	(obj:23)
t_x_540                                             1 	(obj:7)
t_x_541                                             1 	(obj:15)
t_x_542                                             1 	(obj:18)
t_x_543                                             1 	(obj:21)
t_x_545                                             1 	(obj:28)
t_x_546                                             1 	(obj:11)
t_x_550                                             1 	(obj:45)
t_x_551                                             1 	(obj:37)
t_x_552                                             1 	(obj:22)
t_x_557                                             1 	(obj:13)
t_x_561                                             1 	(obj:7)
t_x_571                                             1 	(obj:4)
t_x_573                                             1 	(obj:15)
t_x_580                                             1 	(obj:37)
t_x_589                                             1 	(obj:24)
t_x_591                                             1 	(obj:24)
t_x_595                                             1 	(obj:24)
t_x_598                                             1 	(obj:4)
t_x_604                                             1 	(obj:38)
t_x_607                                             1 	(obj:2)
t_x_608                                             1 	(obj:6)
t_x_609                                             1 	(obj:0)
t_x_610                                             1 	(obj:15)
t_x_613                                             1 	(obj:12)
t_x_616                                             1 	(obj:7)
t_x_617                                             1 	(obj:17)
t_x_625                                             1 	(obj:0)
t_x_629                                             1 	(obj:8)
t_x_630                                             1 	(obj:3)
t_x_631                                             1 	(obj:1)
t_x_633                                             1 	(obj:4)
t_x_638                                             1 	(obj:40)
t_x_643                                             1 	(obj:2)
t_x_646                                             1 	(obj:27)
t_x_652                                             1 	(obj:11)
t_x_657                                             1 	(obj:16)
t_x_659                                             1 	(obj:4)
t_x_661                                             1 	(obj:14)
t_x_666                                             1 	(obj:27)
t_x_670                                             1 	(obj:5)
t_x_672                                             1 	(obj:10)
t_x_675                                             1 	(obj:46)
t_x_677                                             1 	(obj:9)
t_x_683                                             1 	(obj:9)
t_x_687                                             1 	(obj:41)
t_x_690                                             1 	(obj:18)
t_x_691                                             1 	(obj:59)
t_x_698                                             1 	(obj:17)
t_x_702                                             1 	(obj:39)
t_x_704                                             1 	(obj:34)
t_x_707                                             1 	(obj:30)
t_x_709                                             1 	(obj:19)
t_x_712                                             1 	(obj:31)
t_x_714                                             1 	(obj:20)
t_x_722                                             1 	(obj:33)
t_x_723                                             1 	(obj:6)
t_x_727                                             1 	(obj:10)
t_x_731                                             1 	(obj:5)
t_x_734                                             1 	(obj:17)
t_x_737                                             1 	(obj:4)
t_x_738                                             1 	(obj:28)
t_x_742                                             1 	(obj:4)
t_x_746                                             1 	(obj:8)
t_x_747                                             1 	(obj:25)
t_x_748                                             1 	(obj:28)
t_x_751                                             1 	(obj:23)
t_x_753                                             1 	(obj:18)
t_x_754                                             1 	(obj:0)
t_x_755                                             1 	(obj:22)
t_x_764                                             1 	(obj:40)
t_x_769                                             1 	(obj:18)
t_x_776                                             1 	(obj:13)
t_x_781                                             1 	(obj:12)
t_x_783                                             1 	(obj:8)
t_x_796                                             1 	(obj:8)
t_x_799                                             1 	(obj:3)
t_x_800                                             1 	(obj:18)
t_x_803                                             1 	(obj:5)
t_x_806                                             1 	(obj:2)
t_x_809                                             1 	(obj:2)
t_x_811                                             1 	(obj:31)
t_x_816                                             1 	(obj:39)
t_x_821                                             1 	(obj:4)
t_x_823                                             1 	(obj:53)
t_x_827                                             1 	(obj:3)
t_x_829                                             1 	(obj:33)
t_x_830                                             1 	(obj:31)
t_x_831                                             1 	(obj:15)
t_x_834                                             1 	(obj:16)
t_x_837                                             1 	(obj:19)
t_x_839                                             1 	(obj:44)
t_x_840                                             1 	(obj:11)
t_x_841                                             1 	(obj:6)
t_x_856                                             1 	(obj:1)
t_x_860                                             1 	(obj:17)
t_x_866                                             1 	(obj:13)
t_x_874                                             1 	(obj:17)
t_x_875                                             1 	(obj:19)
t_x_878                                             1 	(obj:9)
t_x_879                                             1 	(obj:19)
t_x_884                                             1 	(obj:3)
t_x_886                                             1 	(obj:14)
t_x_888                                             1 	(obj:18)
t_x_890                                             1 	(obj:11)
t_x_893                                             1 	(obj:33)
t_x_895                                             1 	(obj:4)
t_x_898                                             1 	(obj:20)
t_x_902                                             1 	(obj:26)
t_x_903                                             1 	(obj:22)
t_x_905                                             1 	(obj:41)
t_x_907                                             1 	(obj:8)
t_x_913                                             1 	(obj:34)
t_x_920                                             1 	(obj:3)
t_x_924                                             1 	(obj:17)
t_x_930                                             1 	(obj:10)
t_x_934                                             1 	(obj:45)
t_x_936                                             1 	(obj:23)
t_x_939                                             1 	(obj:5)
t_x_940                                             1 	(obj:26)
t_x_941                                             1 	(obj:13)
t_x_942                                             1 	(obj:10)
t_x_944                                             1 	(obj:19)
t_x_948                                             1 	(obj:6)
t_x_949                                             1 	(obj:0)
t_x_951                                             1 	(obj:68)
t_x_952                                             1 	(obj:11)
t_x_959                                             1 	(obj:2)
t_x_963                                             1 	(obj:57)
t_x_967                                             1 	(obj:11)
t_x_969                                             1 	(obj:7)
t_x_976                                             1 	(obj:21)
t_x_979                                             1 	(obj:8)
t_x_989                                             1 	(obj:10)
t_x_990                                             1 	(obj:7)
t_x_992                                             1 	(obj:10)
t_x_999                                             1 	(obj:0)
t_x_1001                                            1 	(obj:6)
t_x_1002                                            1 	(obj:8)
t_x_1006                                            1 	(obj:13)
t_x_1009                                            1 	(obj:29)
t_x_1012                                            1 	(obj:3)
t_x_1013                                            1 	(obj:16)
t_x_1021                                            1 	(obj:21)
t_x_1022                                            1 	(obj:0)
t_x_1024                                            1 	(obj:26)
t_x_1027                                            1 	(obj:11)
t_x_1030                                            1 	(obj:2)
t_x_1031                                            1 	(obj:10)
t_x_1036                                            1 	(obj:1)
t_x_1038                                            1 	(obj:38)
t_x_1040                                            1 	(obj:26)
t_x_1043                                            1 	(obj:28)
t_x_1049                                            1 	(obj:52)
t_x_1052                                            1 	(obj:13)
t_x_1053                                            1 	(obj:19)
t_x_1054                                            1 	(obj:2)
t_x_1055                                            1 	(obj:31)
t_x_1058                                            1 	(obj:5)
t_x_1059                                            1 	(obj:43)
t_x_1068                                            1 	(obj:24)
t_x_1069                                            1 	(obj:7)
t_x_1072                                            1 	(obj:16)
t_x_1078                                            1 	(obj:62)
t_x_1085                                            1 	(obj:27)
t_x_1089                                            1 	(obj:2)
t_x_1091                                            1 	(obj:3)
t_x_1092                                            1 	(obj:3)
t_x_1093                                            1 	(obj:12)
t_x_1099                                            1 	(obj:34)
t_x_1100                                            1 	(obj:3)
t_x_1101                                            1 	(obj:23)
t_x_1103                                            1 	(obj:0)
t_x_1104                                            1 	(obj:15)
t_x_1107                                            1 	(obj:19)
t_x_1108                                            1 	(obj:3)
t_x_1111                                            1 	(obj:21)
t_x_1113                                            1 	(obj:15)
t_x_1118                                            1 	(obj:4)
t_x_1119                                            1 	(obj:0)
t_x_1125                                            1 	(obj:34)
t_x_1130                                            1 	(obj:9)
t_x_1133                                            1 	(obj:48)
t_x_1134                                            1 	(obj:23)
t_x_1139                                            1 	(obj:1)
t_x_1140                                            1 	(obj:20)
t_x_1142                                            1 	(obj:10)
t_x_1147                                            1 	(obj:3)
t_x_1151                                            1 	(obj:38)
t_x_1157                                            1 	(obj:18)
t_x_1159                                            1 	(obj:9)
t_x_1162                                            1 	(obj:13)
t_x_1164                                            1 	(obj:37)
t_x_1166                                            1 	(obj:29)
t_x_1168                                            1 	(obj:27)
t_x_1169                                            1 	(obj:9)
t_x_1173                                            1 	(obj:5)
t_x_1182                                            1 	(obj:6)
t_x_1191                                            1 	(obj:16)
t_x_1199                                            1 	(obj:25)
t_x_1207                                            1 	(obj:6)
t_x_1208                                            1 	(obj:4)
t_x_1209                                            1 	(obj:55)
t_x_1211                                            1 	(obj:1)
t_x_1213                                            1 	(obj:21)
t_x_1215                                            1 	(obj:0)
t_x_1222                                            1 	(obj:15)
t_x_1223                                            1 	(obj:4)
t_x_1224                                            1 	(obj:19)
t_x_1226                                            1 	(obj:9)
t_x_1227                                            1 	(obj:77)
t_x_1231                                            1 	(obj:3)
t_x_1232                                            1 	(obj:13)
t_x_1234                                            1 	(obj:25)
t_x_1236                                            1 	(obj:31)
t_x_1239                                            1 	(obj:7)
t_x_1252                                            1 	(obj:4)
t_x_1253                                            1 	(obj:7)
t_x_1254                                            1 	(obj:40)
t_x_1255                                            1 	(obj:16)
t_x_1261                                            1 	(obj:3)
t_x_1271                                            1 	(obj:27)
t_x_1272                                            1 	(obj:30)
t_x_1277                                            1 	(obj:6)
t_x_1279                                            1 	(obj:1)
t_x_1287                                            1 	(obj:28)
t_x_1288                                            1 	(obj:26)
t_x_1290                                            1 	(obj:22)
t_x_1292                                            1 	(obj:22)
t_x_1296                                            1 	(obj:1)
t_x_1297                                            1 	(obj:20)
t_x_1311                                            1 	(obj:31)
t_x_1312                                            1 	(obj:3)
t_x_1313                                            1 	(obj:2)
t_x_1314                                            1 	(obj:65)
t_x_1315                                            1 	(obj:3)
t_x_1316                                            1 	(obj:8)
t_x_1319                                            1 	(obj:16)
t_x_1320                                            1 	(obj:2)
t_x_1321                                            1 	(obj:14)
t_x_1323                                            1 	(obj:0)
t_x_1326                                            1 	(obj:21)
t_x_1334                                            1 	(obj:25)
t_x_1348                                            1 	(obj:23)
t_x_1356                                            1 	(obj:14)
t_x_1358                                            1 	(obj:5)
t_x_1365                                            1 	(obj:4)
t_x_1371                                            1 	(obj:38)
t_x_1375                                            1 	(obj:8)
t_x_1377                                            1 	(obj:9)
t_x_1378                                            1 	(obj:0)
t_x_1381                                            1 	(obj:0)
t_x_1384                                            1 	(obj:8)
t_x_1387                                            1 	(obj:65)
t_x_1391                                            1 	(obj:4)
t_x_1393                                            1 	(obj:59)
t_x_1410                                            1 	(obj:11)
t_x_1416                                            1 	(obj:16)
t_x_1417                                            1 	(obj:7)
t_x_1421                                            1 	(obj:19)
t_x_1424                                            1 	(obj:6)
t_x_1426                                            1 	(obj:2)
t_x_1427                                            1 	(obj:9)
t_x_1433                                            1 	(obj:15)
t_x_1434                                            1 	(obj:35)
t_x_1435                                            1 	(obj:4)
t_x_1438                                            1 	(obj:10)
t_x_1439                                            1 	(obj:35)
t_x_1447                                            1 	(obj:12)
t_x_1450                                            1 	(obj:13)
t_x_1451                                            1 	(obj:21)
t_x_1452                                            1 	(obj:12)
t_x_1453                                            1 	(obj:38)
t_x_1455                                            1 	(obj:30)
t_x_1465                                            1 	(obj:12)
t_x_1468                                            1 	(obj:14)
t_x_1469                                            1 	(obj:22)
t_x_1472                                            1 	(obj:32)
t_x_1473                                            1 	(obj:15)
t_x_1475                                            1 	(obj:3)
t_x_1478                                            1 	(obj:36)
t_x_1479                                            1 	(obj:30)
t_x_1481                                            1 	(obj:23)
t_x_1486                                            1 	(obj:31)
t_x_1488                                            1 	(obj:22)
t_x_1489                                            1 	(obj:10)
t_x_1495                                            1 	(obj:95)
t_x_1504                                            1 	(obj:16)
t_x_1512                                            1 	(obj:2)
t_x_1515                                            1 	(obj:27)
t_x_1518                                            1 	(obj:22)
t_x_1519                                            1 	(obj:26)
t_x_1520                                            1 	(obj:33)
t_x_1523                                            1 	(obj:18)
t_x_1525                                            1 	(obj:14)
t_x_1530                                            1 	(obj:48)
t_x_1534                                            1 	(obj:24)
t_x_1542                                            1 	(obj:48)
t_x_1543                                            1 	(obj:18)
t_x_1544                                            1 	(obj:5)
t_x_1547                                            1 	(obj:31)
t_x_1549                                            1 	(obj:2)
t_x_1550                                            1 	(obj:5)
t_x_1553                                            1 	(obj:31)
t_x_1556                                            1 	(obj:22)
t_x_1558                                            1 	(obj:6)
t_x_1562                                            1 	(obj:32)
t_x_1566                                            1 	(obj:10)
t_x_1567                                            1 	(obj:29)
t_x_1569                                            1 	(obj:5)
t_x_1571                                            1 	(obj:4)
t_x_1573                                            1 	(obj:4)
t_x_1578                                            1 	(obj:27)
t_x_1586                                            1 	(obj:16)
t_x_1589                                            1 	(obj:2)
t_x_1591                                            1 	(obj:8)
t_x_1594                                            1 	(obj:5)
t_x_1597                                            1 	(obj:22)
t_x_1611                                            1 	(obj:23)
t_x_1612                                            1 	(obj:21)
t_x_1619                                            1 	(obj:3)
t_x_1620                                            1 	(obj:39)
t_x_1621                                            1 	(obj:26)
t_x_1622                                            1 	(obj:10)
t_x_1623                                            1 	(obj:26)
t_x_1626                                            1 	(obj:4)
t_x_1632                                            1 	(obj:33)
t_x_1640                                            1 	(obj:29)
t_x_1641                                            1 	(obj:0)
t_x_1643                                            1 	(obj:2)
t_x_1645                                            1 	(obj:30)
t_x_1647                                            1 	(obj:3)
t_x_1651                                            1 	(obj:26)
t_x_1655                                            1 	(obj:12)
t_x_1658                                            1 	(obj:58)
t_x_1659                                            1 	(obj:3)
t_x_1663                                            1 	(obj:15)
t_x_1665                                            1 	(obj:12)
t_x_1676                                            1 	(obj:19)
t_x_1680                                            1 	(obj:15)
t_x_1684                                            1 	(obj:31)
t_x_1692                                            1 	(obj:12)
t_x_1696                                            1 	(obj:8)
t_x_1700                                            1 	(obj:6)
t_x_1701                                            1 	(obj:32)
t_x_1703                                            1 	(obj:6)
t_x_1706                                            1 	(obj:9)
t_x_1707                                            1 	(obj:0)
t_x_1708                                            1 	(obj:23)
t_x_1709                                            1 	(obj:10)
t_x_1710                                            1 	(obj:20)
t_x_1712                                            1 	(obj:2)
t_x_1718                                            1 	(obj:11)
t_x_1723                                            1 	(obj:14)
t_x_1725                                            1 	(obj:19)
t_x_1729                                            1 	(obj:15)
t_x_1731                                            1 	(obj:5)
t_x_1732                                            1 	(obj:14)
t_x_1733                                            1 	(obj:13)
t_x_1734                                            1 	(obj:21)
t_x_1741                                            1 	(obj:0)
t_x_1745                                            1 	(obj:1)
t_x_1753                                            1 	(obj:7)
t_x_1756                                            1 	(obj:33)
t_x_1757                                            1 	(obj:19)
t_x_1759                                            1 	(obj:10)
t_x_1761                                            1 	(obj:10)
t_x_1778                                            1 	(obj:5)
t_x_1781                                            1 	(obj:9)
t_x_1785                                            1 	(obj:4)
t_x_1786                                            1 	(obj:8)
t_x_1789                                            1 	(obj:25)
t_x_1796                                            1 	(obj:37)
t_x_1799                                            1 	(obj:29)
t_x_1803                                            1 	(obj:2)
t_x_1804                                            1 	(obj:2)
t_x_1806                                            1 	(obj:4)
t_x_1809                                            1 	(obj:12)
t_x_1812                                            1 	(obj:28)
t_x_1814                                            1 	(obj:9)
t_x_1815                                            1 	(obj:33)
t_x_1819                                            1 	(obj:21)
t_x_1826                                            1 	(obj:17)
t_x_1827                                            1 	(obj:14)
t_x_1835                                            1 	(obj:39)
t_x_1839                                            1 	(obj:19)
t_x_1840                                            1 	(obj:9)
t_x_1844                                            1 	(obj:13)
t_x_1845                                            1 	(obj:11)
t_x_1848                                            1 	(obj:30)
t_x_1849                                            1 	(obj:6)
t_x_1852                                            1 	(obj:18)
t_x_1853                                            1 	(obj:47)
t_x_1859                                            1 	(obj:19)
t_x_1860                                            1 	(obj:23)
t_x_1861                                            1 	(obj:7)
t_x_1864                                            1 	(obj:5)
t_x_1865                                            1 	(obj:36)
t_x_1866                                            1 	(obj:7)
t_x_1870                                            1 	(obj:34)
t_x_1876                                            1 	(obj:1)
t_x_1881                                            1 	(obj:9)
t_x_1886                                            1 	(obj:6)
t_x_1887                                            1 	(obj:49)
t_x_1896                                            1 	(obj:21)
t_x_1899                                            1 	(obj:0)
t_x_1900                                            1 	(obj:12)
t_x_1903                                            1 	(obj:29)
t_x_1910                                            1 	(obj:8)
t_x_1912                                            1 	(obj:9)
t_x_1923                                            1 	(obj:16)
t_x_1924                                            1 	(obj:29)
t_x_1929                                            1 	(obj:0)
t_x_1932                                            1 	(obj:25)
t_x_1933                                            1 	(obj:5)
t_x_1942                                            1 	(obj:13)
t_x_1948                                            1 	(obj:22)
t_x_1953                                            1 	(obj:60)
t_x_1958                                            1 	(obj:11)
t_x_1960                                            1 	(obj:3)
t_x_1965                                            1 	(obj:5)
t_x_1966                                            1 	(obj:11)
t_x_1978                                            1 	(obj:9)
t_x_1983                                            1 	(obj:7)
t_x_1991                                            1 	(obj:14)
t_x_1994                                            1 	(obj:5)
